p edge 25 29
e 1 2
e 1 4
e 1 9
e 1 14
e 1 19
e 3 8
e 3 11
e 6 7
e 7 24
e 8 10
e 8 16
e 8 18
e 8 19
e 8 21
e 9 22
e 10 13
e 10 23
e 11 19
e 11 20
e 12 16
e 12 22
e 13 15
e 13 17
e 13 25
e 15 20
e 15 24
e 17 25
e 19 23
e 22 23
